Emin.log

Gurobi 9.1.1 (mac64, Java) logging started Sun May  2 15:25:16 2021

Academic license - for non-commercial use only - expires 2021-06-20

Gurobi 9.1.1 (mac64, Java) logging started Sun May  2 15:25:35 2021

Academic license - for non-commercial use only - expires 2021-06-20
Warning: variables 5 and 6 have the same name "Künefe_E8"
Warning: constraint name " Money Constraint" has a space
Warning: to let Gurobi read it back, use rlp format
Gurobi Optimizer version 9.1.1 build v9.1.1rc0 (mac64)
Thread count: 2 physical cores, 4 logical processors, using up to 4 threads
Optimize a model with 2 rows, 20 columns and 40 nonzeros
Model fingerprint: 0xbe6aaa6f
Variable types: 0 continuous, 20 integer (20 binary)
Coefficient statistics:
  Matrix range     [5e+00, 1e+01]
  Objective range  [5e+00, 1e+01]
  Bounds range     [1e+00, 1e+00]
  RHS range        [3e+01, 2e+04]
Found heuristic solution: objective 44.0000000
Presolve removed 2 rows and 20 columns
Presolve time: 0.00s
Presolve: All rows and columns removed

Explored 0 nodes (0 simplex iterations) in 0.00 seconds
Thread count was 1 (of 4 available processors)

Solution count 2: 58 

Optimal solution found (tolerance 1.00e-04)
Best objective 5.800000000000e+01, best bound 5.800000000000e+01, gap 0.0000%
